c Sudoku solution
p cnf 729 0
224 0
241 0
258 0
285 0
338 0
349 0
531 0
568 0
584 0
599 0
615 0
644 0
663 0
682 0
696 0
737 0
639 0
813 0
869 0
459 0
919 0
129 0
279 0
789 0
945 0
953 0
143 0
966 0
977 0
988 0
322 0
233 0
135 0
216 0
921 0
497 0
292 0
267 0
994 0
932 0
198 0
748 0
714 0
836 0
854 0
847 0
776 0
872 0
793 0
895 0
881 0
725 0
828 0
434 0
418 0
512 0
627 0
678 0
651 0
442 0
465 0
575 0
426 0
523 0
546 0
557 0
752 0
761 0
162 0
156 0
174 0
355 0
364 0
386 0
187 0
111 0
317 0
483 0
471 0
373 0
391 0
